p cnf 320 553
-23 0
-24 0
-25 0
1 2 0
-1 -2 0
6 7 0
-6 -7 0
11 12 0
-11 -12 0
16 17 0
-16 -17 0
21 22 0
-21 -22 0
26 27 0
-26 -27 0
31 32 0
-31 -32 0
36 37 0
-36 -37 0
41 42 0
-41 -42 0
46 47 0
-46 -47 0
51 52 0
-51 -52 0
56 57 0
-56 -57 0
61 62 0
-61 -62 0
66 67 0
-66 -67 0
71 72 0
-71 -72 0
76 77 0
-76 -77 0
81 82 0
-81 -82 0
86 87 0
-86 -87 0
91 92 0
-91 -92 0
96 97 0
-96 -97 0
101 102 0
-101 -102 0
106 107 0
-106 -107 0
111 112 0
-111 -112 0
116 117 0
-116 -117 0
121 122 0
-121 -122 0
126 127 0
-126 -127 0
131 132 0
-131 -132 0
136 137 0
-136 -137 0
141 142 0
-141 -142 0
146 147 0
-146 -147 0
151 152 0
-151 -152 0
156 157 0
-156 -157 0
161 162 0
-161 -162 0
166 167 0
-166 -167 0
171 172 0
-171 -172 0
176 177 0
-176 -177 0
181 182 0
-181 -182 0
186 187 0
-186 -187 0
191 192 0
-191 -192 0
196 197 0
-196 -197 0
201 202 0
-201 -202 0
206 207 0
-206 -207 0
211 212 0
-211 -212 0
216 217 0
-216 -217 0
221 222 0
-221 -222 0
226 227 0
-226 -227 0
231 232 0
-231 -232 0
236 237 0
-236 -237 0
241 242 0
-241 -242 0
246 247 0
-246 -247 0
251 252 0
-251 -252 0
256 257 0
-256 -257 0
261 262 0
-261 -262 0
266 267 0
-266 -267 0
271 272 0
-271 -272 0
276 277 0
-276 -277 0
281 282 0
-281 -282 0
286 287 0
-286 -287 0
291 292 0
-291 -292 0
296 297 0
-296 -297 0
301 302 0
-301 -302 0
306 307 0
-306 -307 0
311 312 0
-311 -312 0
316 317 0
-316 -317 0
-4 -5 0
-3 -5 0
-3 -4 0
-9 -10 0
-8 -10 0
-8 -9 0
-14 -15 0
-13 -15 0
-13 -14 0
-19 -20 0
-18 -20 0
-18 -19 0
-24 -25 0
-23 -25 0
-23 -24 0
-29 -30 0
-28 -30 0
-28 -29 0
-34 -35 0
-33 -35 0
-33 -34 0
-39 -40 0
-38 -40 0
-38 -39 0
-44 -45 0
-43 -45 0
-43 -44 0
-49 -50 0
-48 -50 0
-48 -49 0
-54 -55 0
-53 -55 0
-53 -54 0
-59 -60 0
-58 -60 0
-58 -59 0
-64 -65 0
-63 -65 0
-63 -64 0
-69 -70 0
-68 -70 0
-68 -69 0
-74 -75 0
-73 -75 0
-73 -74 0
-79 -80 0
-78 -80 0
-78 -79 0
-84 -85 0
-83 -85 0
-83 -84 0
-89 -90 0
-88 -90 0
-88 -89 0
-94 -95 0
-93 -95 0
-93 -94 0
-99 -100 0
-98 -100 0
-98 -99 0
-104 -105 0
-103 -105 0
-103 -104 0
-109 -110 0
-108 -110 0
-108 -109 0
-114 -115 0
-113 -115 0
-113 -114 0
-119 -120 0
-118 -120 0
-118 -119 0
-124 -125 0
-123 -125 0
-123 -124 0
-129 -130 0
-128 -130 0
-128 -129 0
-134 -135 0
-133 -135 0
-133 -134 0
-139 -140 0
-138 -140 0
-138 -139 0
-144 -145 0
-143 -145 0
-143 -144 0
-149 -150 0
-148 -150 0
-148 -149 0
-154 -155 0
-153 -155 0
-153 -154 0
-159 -160 0
-158 -160 0
-158 -159 0
-164 -165 0
-163 -165 0
-163 -164 0
-169 -170 0
-168 -170 0
-168 -169 0
-174 -175 0
-173 -175 0
-173 -174 0
-179 -180 0
-178 -180 0
-178 -179 0
-184 -185 0
-183 -185 0
-183 -184 0
-189 -190 0
-188 -190 0
-188 -189 0
-194 -195 0
-193 -195 0
-193 -194 0
-199 -200 0
-198 -200 0
-198 -199 0
-204 -205 0
-203 -205 0
-203 -204 0
-209 -210 0
-208 -210 0
-208 -209 0
-214 -215 0
-213 -215 0
-213 -214 0
-219 -220 0
-218 -220 0
-218 -219 0
-224 -225 0
-223 -225 0
-223 -224 0
-229 -230 0
-228 -230 0
-228 -229 0
-234 -235 0
-233 -235 0
-233 -234 0
-239 -240 0
-238 -240 0
-238 -239 0
-244 -245 0
-243 -245 0
-243 -244 0
-249 -250 0
-248 -250 0
-248 -249 0
-254 -255 0
-253 -255 0
-253 -254 0
-259 -260 0
-258 -260 0
-258 -259 0
-264 -265 0
-263 -265 0
-263 -264 0
-269 -270 0
-268 -270 0
-268 -269 0
-274 -275 0
-273 -275 0
-273 -274 0
-279 -280 0
-278 -280 0
-278 -279 0
-284 -285 0
-283 -285 0
-283 -284 0
-289 -290 0
-288 -290 0
-288 -289 0
-294 -295 0
-293 -295 0
-293 -294 0
-299 -300 0
-298 -300 0
-298 -299 0
-304 -305 0
-303 -305 0
-303 -304 0
-309 -310 0
-308 -310 0
-308 -309 0
-314 -315 0
-313 -315 0
-313 -314 0
-319 -320 0
-318 -320 0
-318 -319 0
-3 1 0
-4 2 0
-8 6 0
-9 7 0
-13 11 0
-14 12 0
-18 16 0
-19 17 0
-23 21 0
-24 22 0
-28 26 0
-29 27 0
-33 31 0
-34 32 0
-38 36 0
-39 37 0
-43 41 0
-44 42 0
-48 46 0
-49 47 0
-53 51 0
-54 52 0
-58 56 0
-59 57 0
-63 61 0
-64 62 0
-68 66 0
-69 67 0
-73 71 0
-74 72 0
-78 76 0
-79 77 0
-83 81 0
-84 82 0
-88 86 0
-89 87 0
-93 91 0
-94 92 0
-98 96 0
-99 97 0
-103 101 0
-104 102 0
-108 106 0
-109 107 0
-113 111 0
-114 112 0
-118 116 0
-119 117 0
-123 121 0
-124 122 0
-128 126 0
-129 127 0
-133 131 0
-134 132 0
-138 136 0
-139 137 0
-143 141 0
-144 142 0
-148 146 0
-149 147 0
-153 151 0
-154 152 0
-158 156 0
-159 157 0
-163 161 0
-164 162 0
-168 166 0
-169 167 0
-173 171 0
-174 172 0
-178 176 0
-179 177 0
-183 181 0
-184 182 0
-188 186 0
-189 187 0
-193 191 0
-194 192 0
-198 196 0
-199 197 0
-203 201 0
-204 202 0
-208 206 0
-209 207 0
-213 211 0
-214 212 0
-218 216 0
-219 217 0
-223 221 0
-224 222 0
-228 226 0
-229 227 0
-233 231 0
-234 232 0
-238 236 0
-239 237 0
-243 241 0
-244 242 0
-248 246 0
-249 247 0
-253 251 0
-254 252 0
-258 256 0
-259 257 0
-263 261 0
-264 262 0
-268 266 0
-269 267 0
-273 271 0
-274 272 0
-278 276 0
-279 277 0
-283 281 0
-284 282 0
-288 286 0
-289 287 0
-293 291 0
-294 292 0
-298 296 0
-299 297 0
-303 301 0
-304 302 0
-308 306 0
-309 307 0
-313 311 0
-314 312 0
-318 316 0
-319 317 0
18 28 63 58 68 0
-18 -28 0
-18 -63 0
-18 -58 0
-18 -68 0
-28 -63 0
-28 -58 0
-28 -68 0
-63 -58 0
-63 -68 0
-58 -68 0
19 29 64 59 0
19 29 64 69 0
19 29 59 69 0
19 64 59 69 0
29 64 59 69 0
-19 -29 -64 0
-19 -29 -59 0
-19 -29 -69 0
-19 -64 -59 0
-19 -64 -69 0
-19 -59 -69 0
-29 -64 -59 0
-29 -64 -69 0
-29 -59 -69 0
-64 -59 -69 0
-20 0
-30 0
-65 0
-60 0
-70 0
-278 0
-279 0
-280 0
276 0
18 28 63 58 68 0
-18 -28 0
-18 -63 0
-18 -58 0
-18 -68 0
-28 -63 0
-28 -58 0
-28 -68 0
-63 -58 0
-63 -68 0
-58 -68 0
19 29 64 59 0
19 29 64 69 0
19 29 59 69 0
19 64 59 69 0
29 64 59 69 0
-19 -29 -64 0
-19 -29 -59 0
-19 -29 -69 0
-19 -64 -59 0
-19 -64 -69 0
-19 -59 -69 0
-29 -64 -59 0
-29 -64 -69 0
-29 -59 -69 0
-64 -59 -69 0
-20 0
-30 0
-65 0
-60 0
-70 0
-238 0
-239 0
-240 0
237 0
18 28 63 58 68 0
-18 -28 0
-18 -63 0
-18 -58 0
-18 -68 0
-28 -63 0
-28 -58 0
-28 -68 0
-63 -58 0
-63 -68 0
-58 -68 0
19 29 64 59 0
19 29 64 69 0
19 29 59 69 0
19 64 59 69 0
29 64 59 69 0
-19 -29 -64 0
-19 -29 -59 0
-19 -29 -69 0
-19 -64 -59 0
-19 -64 -69 0
-19 -59 -69 0
-29 -64 -59 0
-29 -64 -69 0
-29 -59 -69 0
-64 -59 -69 0
-20 0
-30 0
-65 0
-60 0
-70 0
-70 0
